/*********************************************
    * Lab01 - simple
    * Author: Coso
    * Creation Date: Mar, 2019
    *********************************************/
instance_name = "medium_instance_01_simple";

d = 5;
r = 15;

SCj = [319 280 325 315 301];
Dk = [38 70 85 22 86 63 20 68 86 81 40 19 88 32 37];

Cjk = [[70 83 77 85 65 68 89 44 54 47 47 36 31 67 85]
 [39 81 44 75 60 36 63 42 67 55 34 39 39 82 73]
 [31 88 82 74 76 33 48 46 78 72 56 72 37 62 70]
 [57 60 81 76 31 56 33 46 65 46 42 67 66 64 56]
 [51 30 38 60 32 85 84 48 59 75 44 35 39 67 70]];
